c description: Random 3-CNF over 15 variables and 110 clauses
c generator: CNFgen (0.9.0)
c copyright: (C) 2012-2020 Massimo Lauria <massimo.lauria@uniroma1.it>
c url: https://massimolauria.net/cnfgen
c
p cnf 15 110
-7 -12 15 0
1 4 14 0
1 5 14 0
3 4 -5 0
-6 8 -12 0
-2 6 -14 0
-3 -5 -15 0
2 -8 -15 0
-5 9 10 0
-6 10 11 0
-6 -8 -15 0
-3 -5 -7 0
-2 10 -14 0
-10 11 -15 0
-2 6 -11 0
-3 -10 15 0
7 10 13 0
2 5 9 0
-8 9 12 0
1 8 -13 0
-4 -6 8 0
7 -9 -13 0
8 -9 -11 0
-1 2 -3 0
-2 3 14 0
-1 -4 14 0
2 3 -13 0
-1 3 10 0
-4 -5 8 0
-7 9 -10 0
7 8 -10 0
-3 -11 13 0
-1 -9 -11 0
-8 9 -14 0
1 -5 -9 0
-2 12 13 0
2 3 11 0
3 -14 -15 0
-4 9 10 0
6 -14 -15 0
2 -4 -6 0
-4 8 -10 0
4 -6 8 0
3 4 10 0
5 -9 11 0
2 -5 9 0
-4 6 -9 0
7 -9 -12 0
1 9 13 0
1 5 6 0
4 -5 10 0
4 -8 -15 0
1 -4 9 0
2 9 -11 0
1 -10 -14 0
-11 12 13 0
1 2 -11 0
-6 -7 15 0
-2 5 -8 0
1 -5 8 0
7 12 14 0
4 9 -11 0
5 -8 11 0
3 9 -12 0
8 -13 15 0
-2 -8 -12 0
7 -11 -14 0
1 -8 -10 0
4 -6 7 0
2 3 9 0
4 5 8 0
4 -7 13 0
-5 -8 -11 0
-4 -6 11 0
-3 -6 7 0
8 -10 -11 0
11 12 14 0
-4 -9 -11 0
1 -2 15 0
-1 5 6 0
-1 2 6 0
-6 8 15 0
3 -6 13 0
-9 -11 -15 0
8 13 15 0
-1 -12 15 0
-2 -6 -11 0
-5 -9 -14 0
-7 12 15 0
-2 -12 13 0
-3 4 -5 0
-3 8 14 0
8 14 -15 0
2 -5 -12 0
-2 -4 10 0
-5 -6 -9 0
7 10 12 0
1 -4 -7 0
-3 11 15 0
-3 6 -12 0
6 10 -11 0
4 9 13 0
-4 10 11 0
4 13 14 0
-2 7 -8 0
-4 -8 -15 0
-3 8 10 0
-7 -9 13 0
1 12 14 0
-2 -3 5 0